SCIP Status        : solving was interrupted [time limit reached]
Total Time         :    3600.00
  solving          :    3600.00
  presolving       :       0.48 (included in solving)
  reading          :       0.00
  copying          :       1.74 (52 #copies) (minimal 0.00, maximal 0.13, average 0.03)
Original Problem   :
  Problem name     : bbbenchmark/g05_100.9.cut
  Variables        : 101 (100 binary, 0 integer, 0 implicit integer, 1 continuous)
  Constraints      : 1 initial, 1 maximal
  Objective        : minimize, 1 non-zeros (abs.min = 1, abs.max = 1)
Presolved Problem  :
  Problem name     : t_bbbenchmark/g05_100.9.cut
  Variables        : 1801 (100 binary, 0 integer, 1685 implicit integer, 16 continuous)
  Constraints      : 1731 initial, 9059 maximal
  Objective        : minimize, 1 non-zeros (abs.min = 1, abs.max = 1)
  Nonzeros         : 8511 constraint, 202 clique table
Presolvers         :   ExecTime  SetupTime  Calls  FixedVars   AggrVars   ChgTypes  ChgBounds   AddHoles    DelCons    AddCons   ChgSides   ChgCoefs
  boundshift       :       0.00       0.00      0          0          0          0          0          0          0          0          0          0
  convertinttobin  :       0.00       0.00      0          0          0          0          0          0          0          0          0          0
  domcol           :       0.00       0.00      1          0          0          0          0          0          0          0          0          0
  dualagg          :       0.00       0.00      0          0          0          0          0          0          0          0          0          0
  dualcomp         :       0.00       0.00      1          0          0          0          0          0          0          0          0          0
  dualinfer        :       0.00       0.00      0          0          0          0          0          0          0          0          0          0
  dualsparsify     :       0.00       0.00      1          0          0          0          0          0          0          0          0          0
  gateextraction   :       0.00       0.00      0          0          0          0          0          0          0          0          0          0
  implics          :       0.00       0.00      2          0          0          0          0          0          0          0          0          0
  inttobinary      :       0.00       0.00      0          0          0          0          0          0          0          0          0          0
  qpkktref         :       0.00       0.00      0          0          0          0          0          0          0          0          0          0
  redvub           :       0.00       0.00      0          0          0          0          0          0          0          0          0          0
  sparsify         :       0.00       0.00      1          0          0          0          0          0          0          0          0          0
  stuffing         :       0.00       0.00      0          0          0          0          0          0          0          0          0          0
  trivial          :       0.00       0.00      4          0          0          0          0          0          0          0          0          0
  tworowbnd        :       0.00       0.00      0          0          0          0          0          0          0          0          0          0
  dualfix          :       0.00       0.00      4          0          0          0          0          0          0          0          0          0
  genvbounds       :       0.00       0.00      0          0          0          0          0          0          0          0          0          0
  probing          :       0.30       0.00      1          0          0          0          0          0          0          0          0          0
  pseudoobj        :       0.00       0.00      1          0          0          0          1          0          0          0          0          0
  symmetry         :       0.00       0.00      0          0          0          0          0          0          0          0          0          0
  vbounds          :       0.00       0.00      1          0          0          0          0          0          0          0          0          0
  varbound         :       0.00       0.00      2          0          0          0          0          0          0          0          0          0
  and              :       0.01       0.00      2          0          0          0          0          0          0          0          0          0
  linear           :       0.00       0.00      2          0          0          0          0          0          0          0          0          0
  logicor          :       0.00       0.00      0          0          0          0          0          0          0          0          0          0
  bounddisjunction :       0.00       0.00      0          0          0          0          0          0          0          0          0          0
  nonlinear        :       0.16       0.00      5          0          0          0          1          0          0       1730          0          0
  benders          :       0.00       0.00      0          0          0          0          0          0          0          0          0          0
  components       :       0.00       0.00      1          0          0          0          0          0          0          0          0          0
  root node        :          -          -      -          0          -          -         12          -          -          -          -          -
Constraints        :     Number  MaxNumber  #Separate #Propagate    #EnfoLP    #EnfoRelax  #EnfoPS    #Check   #ResProp    Cutoffs    DomReds       Cuts    Applied      Conss   Children
  benderslp        :          0          0          0          0     122839          0          0       7670          0          0          0          0          0          0          0
  integral         :          0          0          0          0     122839          0          0       7670          0          0        983          0          0        854     244230
  varbound         :         15         15         85     821388          0          0          0         24          0          0      88223          0          0          0          0
  and              :       1685       1685     141007     871501          0          0          0         24     520315          3     540224       3991       3911          0          0
  linear           :         31+        49         85     871552          0          0          0         22       1832         53     494923          0          0          0          0
  logicor          :          0+      7003          0     177957          0          0          0          0        115        708         54          0          0          0          0
  bounddisjunction :          0+       703          0      95053          0          0          0          0          5        101          3          0          0          0          0
  benders          :          0          0          0          0          0          0          0         25          0          0          0          0          0          0          0
  countsols        :          0          0          0          0          0          0          0         25          0          0          0          0          0          0          0
  components       :          0          0          0          0          0          0          0          0          0          0          0          0          0          0          0
Constraint Timings :  TotalTime  SetupTime   Separate  Propagate     EnfoLP     EnfoPS     EnfoRelax   Check    ResProp    SB-Prop
  benderslp        :       0.14       0.00       0.00       0.00       0.13       0.00       0.00       0.01       0.00       0.00
  integral         :      62.08       0.00       0.00       0.00      62.07       0.00       0.00       0.01       0.00       0.00
  varbound         :       1.36       0.00       0.01       1.34       0.00       0.00       0.00       0.00       0.00       0.01
  and              :     111.68       0.00      76.38      34.25       0.00       0.00       0.00       0.00       0.39       0.66
  linear           :       5.40       0.00       0.12       5.21       0.00       0.00       0.00       0.00       0.00       0.07
  logicor          :       9.88       0.00       0.00       9.86       0.00       0.00       0.00       0.00       0.00       0.02
  bounddisjunction :       1.84       0.00       0.00       1.84       0.00       0.00       0.00       0.00       0.00       0.00
  benders          :       0.00       0.00       0.00       0.00       0.00       0.00       0.00       0.00       0.00       0.00
  countsols        :       0.00       0.00       0.00       0.00       0.00       0.00       0.00       0.00       0.00       0.00
  components       :       0.30       0.00       0.00       0.30       0.00       0.00       0.00       0.00       0.00       0.00
Propagators        : #Propagate   #ResProp    Cutoffs    DomReds
  dualfix          :          4          0          0          0
  genvbounds       :          0          0          0          0
  nlobbt           :          0          0          0          0
  obbt             :          0          0          0          0
  probing          :          0          0          0          0
  pseudoobj        :     520870          0          0         26
  redcost          :     275515          0          0      57499
  rootredcost      :         15          0          0          0
  symmetry         :          0          0          0          0
  vbounds          :     160737          0          0          0
Propagator Timings :  TotalTime  SetupTime   Presolve  Propagate    ResProp    SB-Prop
  dualfix          :       0.00       0.00       0.00       0.00       0.00       0.00
  genvbounds       :       0.55       0.00       0.00       0.55       0.00       0.00
  nlobbt           :       0.00       0.00       0.00       0.00       0.00       0.00
  obbt             :       0.00       0.00       0.00       0.00       0.00       0.00
  probing          :       0.30       0.00       0.30       0.00       0.00       0.00
  pseudoobj        :       0.87       0.00       0.00       0.87       0.00       0.00
  redcost          :      15.87       0.00       0.00      15.87       0.00       0.00
  rootredcost      :       0.76       0.00       0.00       0.76       0.00       0.00
  symmetry         :       0.31       0.00       0.00       0.31       0.00       0.00
  vbounds          :       0.64       0.00       0.00       0.63       0.00       0.01
Conflict Analysis  :       Time      Calls    Success    DomReds  Conflicts   Literals    Reconvs ReconvLits   Dualrays   Nonzeros   LP Iters   (pool size: [10000,10000])
  propagation      :       0.04        813        641          -        827       65.0          0        0.0          -          -          -
  infeasible LP    :       0.16         83         83          -       3657      156.7          0        0.0        173      167.9          0
  bound exceed. LP :      25.31       7970       7031          -     159390      105.0          0        0.0          0        0.0      71127
  strong branching :       0.00          0          0          -          0        0.0          0        0.0          -          -          0
  pseudo solution  :       0.00          0          0          -          0        0.0          0        0.0          -          -          -
  applied globally :       0.75          -          -          0      36563      108.0          -          -        173          -          -
  applied locally  :          -          -          -          0          0        0.0          -          -          0          -          -
Separators         :   ExecTime  SetupTime      Calls  RootCalls    Cutoffs    DomReds  FoundCuts ViaPoolAdd  DirectAdd    Applied ViaPoolApp  DirectApp      Conss
  cut pool         :       7.01          -      27212        107          -          -      33475    1877322          -          -          -          -          -    (maximal pool size:       3818)
  aggregation      :      14.16       0.00       4862         85          0          0         63        723          0        263        263          0          0
  > cmir           :          -          -          -          -          -          -          -        723          0        263        263          0          -
  > flowcover      :          -          -          -          -          -          -          -          0          0          0          0          0          -
  > knapsackcover  :          -          -          -          -          -          -          -          0          0          0          0          0          -
  cgmip            :       0.00       0.00          0          0          0          0          0          0          0          0          0          0          0
  clique           :       0.01       0.00         85         85          0          0          0          0          0          0          0          0          0
  closecuts        :       0.00       0.00          0          0          0          0          0          0          0          0          0          0          0
  convexproj       :       0.00       0.00          0          0          0          0          0          0          0          0          0          0          0
  disjunctive      :       0.00       0.00          0          0          0          0          0          0          0          0          0          0          0
  eccuts           :       0.00       0.00          0          0          0          0          0          0          0          0          0          0          0
  gauge            :       0.00       0.00          0          0          0          0          0          0          0          0          0          0          0
  gomory           :       0.00       0.00          0          0          0          0          0          0          0          0          0          0          0
  > gomorymi       :          -          -          -          -          -          -          -          0          0          0          0          0          -
  > strongcg       :          -          -          -          -          -          -          -          0          0          0          0          0          -
  impliedbounds    :       0.33       0.00       4862         85          0          0          1          0          0          0          0          0          0
  interlattice     :       0.51       0.00         60         60          0          0         60          0         60         60          0         60          0
  interminor       :       0.00       0.00          0          0          0          0          0          0          0          0          0          0          0
  intersub         :       0.00       0.00          0          0          0          0          0          0          0          0          0          0          0
  intobj           :       0.00       0.00          0          0          0          0          0          0          0          0          0          0          0
  mcf              :       0.00       0.00          1          1          0          0          0          0          0          0          0          0          0
  minor            :       0.02       0.00          0          0          0          0          0          0          0          0          0          0          0
  mixing           :       0.01       0.00       4862         85          0          0          0          0          0          0          0          0          0
  oddcycle         :       0.00       0.00          0          0          0          0          0          0          0          0          0          0          0
  rapidlearning    :       0.03       0.00          0          0          0          0          0          0          0          0          0          0          0
  rlt              :       0.00       0.00         10         10          0          0          0          0          0          0          0          0          0
  zerohalf         :      39.45       0.00       4323         20          0          0      33411    1876599          0     192296     192296          0          0
Cutselectors       :   ExecTime  SetupTime      Calls  RootCalls   Selected     Forced   Filtered  RootSelec   RootForc   RootFilt 
  hybrid           :       1.85       0.00      17439         83     196530          0    1684843        240          0         15
Pricers            :   ExecTime  SetupTime      Calls       Vars
  problem variables:       0.00          -          0          0
Branching Rules    :   ExecTime  SetupTime   BranchLP  BranchExt   BranchPS    Cutoffs    DomReds       Cuts      Conss   Children
  allfullstrong    :       0.00       0.00          0          0          0          0          0          0          0          0
  cloud            :       0.00       0.00          0          0          0          0          0          0          0          0
  distribution     :       0.00       0.00          0          0          0          0          0          0          0          0
  fullstrong       :       0.00       0.00          0          0          0          0          0          0          0          0
  inference        :       0.00       0.00          0          0          0          0          0          0          0          0
  leastinf         :       0.00       0.00          0          0          0          0          0          0          0          0
  lookahead        :       0.00       0.00          0          0          0          0          0          0          0          0
  mostinf          :       0.00       0.00          0          0          0          0          0          0          0          0
  multaggr         :       0.00       0.00          0          0          0          0          0          0          0          0
  nodereopt        :       0.00       0.00          0          0          0          0          0          0          0          0
  pscost           :       0.00       0.00          0          0          0          0          0          0          0          0
  random           :       0.00       0.00          0          0          0          0          0          0          0          0
  relpscost        :      61.64       0.00     122839          0          0          0        983          0        855     244230
  vanillafullstrong:       0.00       0.00          0          0          0          0          0          0          0          0
Primal Heuristics  :   ExecTime  SetupTime      Calls      Found       Best
  LP solutions     :       0.00          -          -          0          0
  relax solutions  :       0.00          -          -          0          0
  pseudo solutions :       0.00          -          -          0          0
  strong branching :       0.01          -          -          1          1
  actconsdiving    :       0.00       0.00          0          0          0
  adaptivediving   :       3.95       0.00         32          0          0
  alns             :       3.05       0.00         22          4          4
  bound            :       0.00       0.00          0          0          0
  clique           :       0.01       0.00          1          0          0
  coefdiving       :       0.00       0.00          0          0          0
  completesol      :       0.00       0.00          0          0          0
  conflictdiving   :     175.48       0.00       1403          0          0
  crossover        :       1.71       0.00          5          1          1
  dins             :       0.00       0.00          0          0          0
  distributiondivin:      81.74       0.00        412          0          0
  dps              :       0.00       0.00          0          0          0
  dualval          :       0.00       0.00          0          0          0
  farkasdiving     :       0.00       0.00          0          0          0
  feaspump         :       0.22       0.00          1          1          1
  fixandinfer      :       0.00       0.00          0          0          0
  fracdiving       :      63.50       0.00        589          0          0
  gins             :       0.24       0.00          0          0          0
  guideddiving     :      65.36       0.00        530          2          2
  indicator        :       0.15       0.00          0          0          0
  indicatordiving  :       0.00       0.00          0          0          0
  intdiving        :       0.00       0.00          0          0          0
  intshifting      :       0.59       0.00         86          0          0
  linesearchdiving :      58.89       0.00        507          0          0
  localbranching   :       0.00       0.00          0          0          0
  locks            :       0.01       0.00          1          0          0
  lpface           :       0.17       0.00          0          0          0
  mpec             :      84.73       0.00         11          5          5
  multistart       :       0.00       0.00          0          0          0
  mutation         :       0.00       0.00          0          0          0
  nlpdiving        :      15.30       0.00          3          0          0
  objpscostdiving  :      53.09       0.00         73          2          1
  octane           :       0.00       0.00          0          0          0
  ofins            :       0.09       0.00          0          0          0
  oneopt           :       0.17       0.00         19          0          0
  padm             :       0.00       0.00          0          0          0
  proximity        :       0.00       0.00          0          0          0
  pscostdiving     :      61.15       0.00        434          1          1
  randrounding     :       0.84       0.00       7641          0          0
  rens             :       0.00       0.00          0          0          0
  reoptsols        :       0.00       0.00          0          0          0
  repair           :       0.00       0.00          0          0          0
  rins             :       3.48       0.00         25          0          0
  rootsoldiving    :      32.34       0.00         36          0          0
  rounding         :       1.38       0.00       5136          0          0
  shiftandpropagate:       0.00       0.00          0          0          0
  shifting         :      37.82       0.00       8972          2          2
  simplerounding   :       0.08       0.00          0          0          0
  subnlp           :     198.17       0.00          0          0          0
  trivial          :       0.01       0.00          2          2          2
  trivialnegation  :       0.00       0.00          0          0          0
  trustregion      :       0.00       0.00          0          0          0
  trysol           :       0.21       0.00          0          0          0
  twoopt           :       0.00       0.00          0          0          0
  undercover       :       2.56       0.00          1          1          1
  vbounds          :       0.00       0.00          0          0          0
  veclendiving     :      59.44       0.00        508          0          0
  zeroobj          :       0.00       0.00          0          0          0
  zirounding       :       0.37       0.00       1000          0          0
  other solutions  :          -          -          -          0          -
Diving (single)    :      Calls      Nodes   LP Iters Backtracks  Conflicts   MinDepth   MaxDepth   AvgDepth  RoundSols  NLeafSols  MinSolDpt  MaxSolDpt  AvgSolDpt
  actconsdiving    :          0          -          -          -          -          -          -          -          -          -          -          -          -
  coefdiving       :          0          -          -          -          -          -          -          -          -          -          -          -          -
  conflictdiving   :       1403      64939    1796928       1582      73365         55         85       67.8          0          -          -          -          -
  distributiondivin:        412      16421     611406        453       7079         53         74       60.9          0          -          -          -          -
  farkasdiving     :          0          -          -          -          -          -          -          -          -          -          -          -          -
  fracdiving       :        589      58053     605742        130       1421         60        278      120.4          0          -          -          -          -
  guideddiving     :        530      49230     628867        237       8212         58        222      114.6          0          2         93        116      104.5
  indicatordiving  :          0          -          -          -          -          -          -          -          -          -          -          -          -
  linesearchdiving :        507      21543     607799        350      23512         49         92       64.1          0          -          -          -          -
  pscostdiving     :        434      18951     622969        454      10655         55         81       64.8          0          1         81         81       81.0
  veclendiving     :        508      22903     607173        477      34230         57         86       66.2          0          -          -          -          -
Diving (adaptive)  :      Calls      Nodes   LP Iters Backtracks  Conflicts   MinDepth   MaxDepth   AvgDepth  RoundSols  NLeafSols  MinSolDpt  MaxSolDpt  AvgSolDpt
  actconsdiving    :          2         90       2742          2         22         62         62       62.0          0          -          -          -          -
  coefdiving       :         12        581      12278          9        641         60         90       70.7          0          -          -          -          -
  conflictdiving   :          0          -          -          -          -          -          -          -          -          -          -          -          -
  distributiondivin:          0          -          -          -          -          -          -          -          -          -          -          -          -
  farkasdiving     :          0          -          -          -          -          -          -          -          -          -          -          -          -
  fracdiving       :          0          -          -          -          -          -          -          -          -          -          -          -          -
  guideddiving     :          0          -          -          -          -          -          -          -          -          -          -          -          -
  indicatordiving  :          0          -          -          -          -          -          -          -          -          -          -          -          -
  linesearchdiving :         10        459      12216          4        411         53         71       65.0          0          -          -          -          -
  pscostdiving     :          3        144       4688          3         50         62         69       66.0          0          -          -          -          -
  veclendiving     :          5        262       5961          3        281         59         77       68.0          0          -          -          -          -
Neighborhoods      :      Calls  SetupTime  SolveTime SolveNodes       Sols       Best       Exp3  EpsGreedy        UCB TgtFixRate  Opt  Inf Node Stal  Sol  Usr Othr Actv
  rens             :          2       0.09       0.02          2          0          0    0.00000   -1.00000    0.54851      0.550    0    2    0    0    0    0    0    1
  rins             :          1       0.02       0.02         25          0          0    0.00000   -1.00000    0.54583      0.700    0    1    0    0    0    0    0    1
  mutation         :          2       0.10       0.04         20          0          0    0.00000   -1.00000    0.52996      0.550    0    2    0    0    0    0    0    1
  localbranching   :          6       0.25       1.24       2155          2          2    0.00000   -1.00000    0.54213      0.881    1    1    0    4    0    0    0    1
  crossover        :          2       0.18       0.02          8          0          0    0.00000   -1.00000    0.54557      0.550    0    2    0    0    0    0    0    1
  proximity        :          5       0.20       0.40        212          1          1    0.00000   -1.00000    0.54272      0.879    1    1    0    3    0    0    0    1
  zeroobjective    :          3       0.22       0.10        220          1          1    0.00000   -1.00000    0.51683      0.900    1    0    0    2    0    0    0    1
  dins             :          1       0.00       0.00          0          0          0    0.00000   -1.00000    0.07083      0.900    0    0    0    0    0    0    1    1
  trustregion      :          0       0.00       0.00          0          0          0    0.00000   -1.00000    1.00000      0.900    0    0    0    0    0    0    0    0
Expressions        :   #IntEval  IntEvalTi   #RevProp  RevPropTi    DomReds    Cutoffs  #Estimate  EstimTime  Branching  #Simplify SimplifyTi Simplified
  pow              :          0       0.00          0       0.00          0          0          0       0.00          0          0       0.00          0
  prod             :       9900       0.00          0       0.00          0          0          0       0.00          0       6635       0.02          0
  sum              :          8       0.00          2       0.00          0          0          0       0.00          0          3       0.03          2
  var              :       6212       0.00          0       0.00          0          0          0       0.00          0      15273       0.01          0
  varidx           :          0       0.00          0       0.00          0          0          0       0.00          0          0       0.00          0
LP                 :       Time      Calls Iterations  Iter/call   Iter/sec  Time-0-It Calls-0-It    ItLimit
  primal LP        :     141.94      20940          0       0.00       0.00     141.86      20940
  dual LP          :    1979.46     221751   11893368      56.80    6008.39       5.14      12376
  lex dual LP      :       0.00          0          0       0.00          -
  barrier LP       :       0.00          0          0       0.00          -       0.00          0
  resolve instable :       0.00          0          0       0.00          -
  diving/probing LP:     549.15      21680    6031220     278.19   10982.83
  strong branching :      21.89       2395     208853      87.20    9541.02          -          -        350
    (at root node) :          -         23       4980     216.52          -
  conflict analysis:      10.39       7354      71127       9.67    6845.72
NLP relaxation     :
  solve time       :      14.38 (23 calls)
  convexity        :  nonconvex (46 linear rows, 0 convex ineq., 0 nonconvex ineq., 1685 nonlinear eq. or two-sided ineq.)
NLP Solvers        :  #Problems  ProblemTi    #Solves  SolveTime      #Iter  Time/Iter      #Okay #TimeLimit #IterLimit #LObjLimit #Interrupt  #NumError #EvalError  #OutOfMem #LicenseEr #OtherTerm   #GlobOpt    #LocOpt  #Feasible #LocInfeas #GlobInfea #Unbounded   #Unknown
  ipopt            :         12       8.90         61      99.65       1633       0.06         59          0          2          0          0          0          0          0          0          0          0         48          0         10          0          0          3
B&B Tree           :
  number of runs   :          1
  nodes            :     191224 (122115 internal, 69109 leaves)
  feasible leaves  :          0
  infeas. leaves   :         13
  objective leaves :      69095
  nodes (total)    :     191224 (122115 internal, 69109 leaves)
  nodes left       :      52938
  max depth        :         60
  max depth (total):         60
  backtracks       :      42246 (22.1%)
  early backtracks :          0 (0.0%)
  nodes exc. ref.  :          0 (0.0%)
  delayed cutoffs  :          3
  repropagations   :         85 (414 domain reductions, 1 cutoffs)
  avg switch length:       6.57
  switching time   :     190.66
Estim. Tree Size   :     382586
Estimation Tree    : 244231 nodes (191293 visited, 122115 internal, 69178 leaves, 52938 open), weight: 0.0000 completed 0.0833
Estimations        :      estim      value      trend resolution     smooth
  wbe              : 925083982870836          -          -          -          -
  tree-profile     :         -1          -          -          -          -
  gap              :    2321795    0.67152    0.00004        128    2340430
  tree-weight      :     382586    0.00000    0.00000        128     381432
  leaf-frequency   :     382586    0.36163   -0.00048        128     381432
  ssg              :    1608698    0.86846   -0.00015        128    1681258
  open-nodes       :     382586 52938.00000  426.45905        128     381432
Root Node          :
  First LP value   : -1.00000000000000e+00
  First LP Iters   :       1688 (10550.00 Iter/sec)
  First LP Time    :       0.16
  Final Dual Bound : -9.53333333333333e-01
  Final Root Iters :       3041
  Root LP Estimate : -3.35983535962561e-01
Solution           :
  Solutions found  :         22 (21 improvements)
  First Solution   : +1.00000000000000e+05   (in run 1, after 0 nodes, 0.03 seconds, depth 0, found by <trivial>)
  Gap First Sol.   :   infinite
  Gap Last Sol.    :      53.58 %
  Primal Bound     : -5.64444444444442e-01   (in run 1, after 49089 nodes, 662.56 seconds, depth 40, found by <alns>)
  Dual Bound       : -8.40551966767282e-01
  Gap              :      48.92 %
Integrals          :      Total       Avg%
  primal-dual      :  123521.49      34.31
  primal-ref       :          -          - (not evaluated)
  dual-ref         :          -          - (not evaluated)
